120 150

54
43
51
53
44
54
49
47
40
40
40
60
43
46
56
53
41
48
51
51
40
40
40
59
49
42
50
56
44
40
54
59
42
49
40
54
57
51
42
40
58
56
50
44
40
51
60
45
45
40
51
60
58
55
51
44
40
54
59
42
49
51
46
53
45
59
46
46
46
59
60
54
42
54
58
52
40
40
40
40
55
46
49
59
51
40
46
48
57
58
41
56
53
48
50
59
59
53
51
46
43
58
49
50
48
60
43
47
51
51
48
43
48
60
45
45
43
49
58
58